(set-logic QF_S)
(declare-fun var0 () String)
(declare-fun var1 () String)
(declare-fun var2 () String)
(declare-fun var3 () String)
(declare-fun var4 () String)
(declare-fun var5 () String)
(declare-fun var6 () String)
(declare-fun var7 () String)
(declare-fun var8 () String)
(declare-fun var9 () String)
(declare-fun var10 () String)
(declare-fun var11 () String)
(declare-fun var12 () String)
(declare-fun var13 () String)
(declare-fun var14 () String)
(declare-fun var15 () String)
(declare-fun var16 () String)
(declare-fun var17 () String)
(declare-fun var18 () String)
(declare-fun var19 () String)
(declare-fun var20 () String)
(declare-fun var21 () String)
(declare-fun var22 () String)
(declare-fun var23 () String)
(declare-fun var24 () String)
(declare-fun var25 () String)
(declare-fun var26 () String)
(declare-fun var27 () String)
(declare-fun var28 () String)
(declare-fun var29 () String)
(declare-fun var30 () String)
(declare-fun var31 () String)
(declare-fun var32 () String)
(declare-fun var33 () String)
(declare-fun var34 () String)
(declare-fun var35 () String)
(declare-fun var36 () String)
(declare-fun var37 () String)
(declare-fun var38 () String)
(declare-fun var39 () String)
(declare-fun var40 () String)
(declare-fun var41 () String)
(declare-fun var42 () String)
(declare-fun var43 () String)
(declare-fun var44 () String)
(declare-fun var45 () String)
(declare-fun var46 () String)
(declare-fun var47 () String)
(declare-fun var48 () String)
(declare-fun var49 () String)
(declare-fun var50 () String)
(declare-fun var51 () String)
(declare-fun var52 () String)
(declare-fun var53 () String)
(declare-fun var54 () String)
(declare-fun var55 () String)
(declare-fun var56 () String)
(declare-fun var57 () String)
(declare-fun var58 () String)
(declare-fun var59 () String)
(declare-fun var60 () String)
(assert (= var0 (str.++ var1 var2)))
(assert (= var2 (str.++ var3 var4)))
(assert (= var4 (str.++ var5 var6)))
(assert (= var6 (str.++ var7 var8)))
(assert (= var8 (str.++ var9 var10)))
(assert (= var10 (str.++ var11 var12)))
(assert (= var12 (str.++ var13 var14)))
(assert (= var14 (str.++ var15 var16)))
(assert (= var16 (str.++ var17 var18)))
(assert (= var18 (str.++ var19 var20)))
(assert (= var20 (str.++ var21 var22)))
(assert (= var22 (str.++ var23 var24)))
(assert (= var24 (str.++ var25 var26)))
(assert (= var26 (str.++ var27 var28)))
(assert (= var28 (str.++ var29 var30)))
(assert (= var30 (str.++ var31 var32)))
(assert (= var32 (str.++ var33 var34)))
(assert (= var34 (str.++ var35 var36)))
(assert (= var36 (str.++ var37 var38)))
(assert (= var38 (str.++ var39 var40)))
(assert (= var40 (str.++ var41 var42)))
(assert (= var42 (str.++ var43 var44)))
(assert (= var44 (str.++ var45 var46)))
(assert (= var46 (str.++ var47 var48)))
(assert (= var48 (str.++ var49 var50)))
(assert (= var50 (str.++ var51 var52)))
(assert (= var52 (str.++ var53 var54)))
(assert (= var54 (str.++ var55 var56)))
(assert (= var56 (str.++ var57 var58)))
(assert (= var58 (str.++ var59 var60)))
(assert (= var0 "solution"))
(assert (= "H" (str.at var54 718)))
(assert (= "p" (str.at var59 467)))
(assert (= ")" (str.at var56 984)))
(assert (= "n" (str.at var31 732)))
(assert (= "A" (str.at var47 487)))
(assert (= "@" (str.at var1 318)))
(assert (= "\\" (str.at var38 203)))
(assert (= "C" (str.at var41 952)))
(assert (= "Y" (str.at var21 430)))
(assert (= "5" (str.at var22 989)))
(assert (= "a" (str.at var48 652)))
(assert (= "X" (str.at var18 464)))
(assert (= "k" (str.at var10 245)))
(assert (= """" (str.at var37 736)))
(assert (= "'" (str.at var25 136)))
(assert (= "{" (str.at var49 195)))
(assert (= "f" (str.at var0 791)))
(assert (= "w" (str.at var46 698)))
(assert (= "V" (str.at var53 689)))
(assert (= "m" (str.at var8 371)))
(assert (= "N" (str.at var8 541)))
(assert (= "%" (str.at var40 321)))
(assert (= "." (str.at var40 173)))
(assert (= "%" (str.at var9 338)))
(assert (= "W" (str.at var2 172)))
(assert (= "V" (str.at var41 443)))
(assert (= "q" (str.at var9 451)))
(assert (= "b" (str.at var32 432)))
(assert (= "|" (str.at var29 916)))
(assert (= "6" (str.at var57 577)))
(assert (= "y" (str.at var23 600)))
(assert (= "@" (str.at var22 651)))
(assert (= "'" (str.at var20 422)))
(assert (= "@" (str.at var16 592)))
(assert (= "S" (str.at var10 602)))
(assert (= "/" (str.at var33 336)))
(assert (= "T" (str.at var32 547)))
(assert (= "{" (str.at var6 299)))
(assert (= "d" (str.at var25 40)))
(assert (= "{" (str.at var60 888)))
(assert (= "p" (str.at var41 488)))
(assert (= """" (str.at var58 527)))
(assert (= ":" (str.at var25 782)))
(assert (= "Q" (str.at var16 648)))
(assert (= "l" (str.at var17 905)))
(assert (= "_" (str.at var41 348)))
(assert (= "2" (str.at var20 266)))
(assert (= "H" (str.at var10 16)))
(assert (= "+" (str.at var23 653)))
(assert (= "u" (str.at var47 608)))
(assert (= "w" (str.at var54 311)))
(assert (= "\\" (str.at var54 266)))
(assert (= "8" (str.at var21 586)))
(assert (= "," (str.at var0 54)))
(assert (= "j" (str.at var29 435)))
(assert (= "8" (str.at var58 329)))
(assert (= "(" (str.at var7 387)))
(assert (= "~" (str.at var22 881)))
(assert (= "(" (str.at var11 71)))
(assert (= "@" (str.at var0 273)))
(assert (= "I" (str.at var1 205)))
(assert (= "c" (str.at var37 83)))
(assert (= "b" (str.at var52 80)))
(assert (= "B" (str.at var60 758)))
(assert (= "&" (str.at var39 224)))
(assert (= "-" (str.at var54 61)))
(assert (= "0" (str.at var53 169)))
(assert (= "m" (str.at var24 989)))
(assert (= "!" (str.at var18 363)))
(assert (= "`" (str.at var55 68)))
(assert (= "V" (str.at var50 742)))
(assert (= "d" (str.at var8 400)))
(assert (= "@" (str.at var10 124)))
(assert (= "I" (str.at var2 192)))
(assert (= "2" (str.at var24 525)))
(assert (= "(" (str.at var31 246)))
(assert (= "<" (str.at var30 984)))
(assert (= ":" (str.at var23 331)))
(assert (= "s" (str.at var51 85)))
(assert (= "M" (str.at var38 11)))
(assert (= "R" (str.at var11 113)))
(assert (= "S" (str.at var1 595)))
(assert (= "M" (str.at var4 757)))
(assert (= "C" (str.at var45 718)))
(assert (= "j" (str.at var60 121)))
(assert (= ";" (str.at var27 338)))
(assert (= "h" (str.at var36 267)))
(assert (= "w" (str.at var18 700)))
(assert (= "`" (str.at var22 399)))
(assert (= "5" (str.at var31 974)))
(assert (= "'" (str.at var18 595)))
(assert (= "a" (str.at var5 36)))
(assert (= "`" (str.at var9 943)))
(assert (= "-" (str.at var2 525)))
(assert (= "Q" (str.at var49 472)))
(assert (= "?" (str.at var59 92)))
(assert (= "'" (str.at var6 981)))
(assert (= ")" (str.at var6 518)))
(assert (= "/" (str.at var38 914)))
(assert (= "%" (str.at var14 59)))
(assert (= "?" (str.at var28 281)))
(assert (= "Q" (str.at var7 636)))
(assert (= "7" (str.at var10 840)))
(assert (= "_" (str.at var29 148)))
(assert (= "r" (str.at var28 557)))
(assert (= "g" (str.at var52 475)))
(assert (= "P" (str.at var57 79)))
(assert (= "u" (str.at var43 270)))
(assert (= "J" (str.at var36 146)))
(assert (= "/" (str.at var12 640)))
(assert (= ")" (str.at var40 844)))
(assert (= "z" (str.at var32 845)))
(assert (= "v" (str.at var54 427)))
(assert (= "C" (str.at var56 318)))
(assert (= "O" (str.at var50 941)))
(assert (= "t" (str.at var13 588)))
(assert (= "x" (str.at var37 505)))
(assert (= "7" (str.at var15 732)))
(assert (= "Z" (str.at var30 179)))
(assert (= "h" (str.at var32 278)))
(assert (= "'" (str.at var22 853)))
(assert (= "r" (str.at var48 13)))
(assert (= "]" (str.at var44 536)))
(assert (= "o" (str.at var19 106)))
(assert (= """" (str.at var22 69)))
(assert (= "\\" (str.at var57 469)))
(assert (= "m" (str.at var48 912)))
(assert (= "X" (str.at var32 444)))
(assert (= "`" (str.at var37 444)))
(assert (= "J" (str.at var3 275)))
(assert (= "b" (str.at var57 740)))
(assert (= "0" (str.at var0 753)))
(assert (= "F" (str.at var51 28)))
(assert (= "l" (str.at var43 884)))
(assert (= "L" (str.at var40 769)))
(assert (= "4" (str.at var10 19)))
(assert (= "m" (str.at var29 663)))
(assert (= "d" (str.at var52 818)))
(assert (= "k" (str.at var15 935)))
(assert (= "2" (str.at var32 121)))
(assert (= "$" (str.at var52 355)))
(assert (= "n" (str.at var47 250)))
(assert (= "-" (str.at var20 723)))
(assert (= "y" (str.at var55 444)))
(assert (= "Y" (str.at var59 126)))
(assert (= "5" (str.at var59 98)))
(assert (= "A" (str.at var3 237)))
(assert (= "r" (str.at var24 667)))
(assert (= "0" (str.at var32 62)))
(assert (= "`" (str.at var37 469)))
(assert (= "-" (str.at var21 883)))
(assert (= "-" (str.at var12 28)))
(assert (= "u" (str.at var53 690)))
(assert (= "1" (str.at var60 936)))
(assert (= "<" (str.at var22 194)))
(assert (= "J" (str.at var48 805)))
(assert (= "1" (str.at var34 851)))
(assert (= "*" (str.at var20 294)))
(assert (= "=" (str.at var9 557)))
(assert (= "W" (str.at var48 527)))
(assert (= "%" (str.at var52 146)))
(assert (= ")" (str.at var38 960)))
(assert (= "_" (str.at var30 187)))
(assert (= "_" (str.at var24 986)))
(assert (= "-" (str.at var7 190)))
(assert (= "P" (str.at var41 361)))
(assert (= "q" (str.at var3 579)))
(assert (= "H" (str.at var24 253)))
(assert (= "C" (str.at var51 810)))
(assert (= "B" (str.at var53 536)))
(assert (= "B" (str.at var31 772)))
(assert (= "m" (str.at var22 46)))
(assert (= "g" (str.at var49 896)))
(assert (= "z" (str.at var29 708)))
(assert (= "!" (str.at var58 169)))
(assert (= "_" (str.at var19 391)))
(assert (= "u" (str.at var10 217)))
(assert (= "8" (str.at var52 205)))
(assert (= "&" (str.at var18 569)))
(assert (= "q" (str.at var29 70)))
(assert (= "h" (str.at var34 721)))
(assert (= "m" (str.at var30 676)))
(assert (= "J" (str.at var7 186)))
(assert (= "t" (str.at var36 265)))
(assert (= "q" (str.at var17 972)))
(assert (= "u" (str.at var0 114)))
(assert (= "a" (str.at var21 191)))
(assert (= "o" (str.at var27 624)))
(assert (= "@" (str.at var9 585)))
(assert (= "6" (str.at var53 904)))
(assert (= "V" (str.at var9 984)))
(assert (= "k" (str.at var46 905)))
(assert (= ")" (str.at var22 215)))
(assert (= "d" (str.at var46 384)))
(assert (= ":" (str.at var27 477)))
(assert (= "1" (str.at var53 227)))
(assert (= "P" (str.at var24 929)))
(assert (= "," (str.at var30 605)))
(assert (= "`" (str.at var23 308)))
(assert (= "(" (str.at var3 123)))
(assert (= "o" (str.at var15 864)))
(assert (= "(" (str.at var5 869)))
(assert (= ")" (str.at var21 129)))
(assert (= "m" (str.at var29 572)))
(assert (= "~" (str.at var20 440)))
(assert (= "$" (str.at var42 376)))
(assert (= "l" (str.at var1 569)))
(assert (= "@" (str.at var39 93)))
(assert (= "%" (str.at var59 359)))
(assert (= "h" (str.at var38 993)))
(assert (= "+" (str.at var60 712)))
(assert (= "I" (str.at var44 509)))
(assert (= "R" (str.at var4 834)))
(assert (= "f" (str.at var25 927)))
(assert (= "d" (str.at var45 817)))
(assert (= """" (str.at var21 937)))
(assert (= "r" (str.at var59 518)))
(assert (= ";" (str.at var8 646)))
(assert (= "]" (str.at var30 241)))
(assert (= "1" (str.at var29 400)))
(assert (= "i" (str.at var6 2)))
(assert (= "q" (str.at var2 577)))
(assert (= "S" (str.at var35 658)))
(assert (= "l" (str.at var3 466)))
(assert (= "*" (str.at var57 998)))
(assert (= "y" (str.at var16 909)))
(assert (= "Y" (str.at var16 771)))
(assert (= "#" (str.at var6 814)))
(assert (= "l" (str.at var58 683)))
(assert (= "x" (str.at var19 739)))
(assert (= "O" (str.at var21 101)))
(assert (= "D" (str.at var22 642)))
(assert (= "j" (str.at var60 158)))
(assert (= "R" (str.at var12 879)))
(assert (= "w" (str.at var25 726)))
(assert (= "\\" (str.at var7 719)))
(assert (= "h" (str.at var28 816)))
(assert (= "%" (str.at var41 558)))
(assert (= "6" (str.at var3 942)))
(assert (= "n" (str.at var60 470)))
(assert (= "N" (str.at var15 634)))
(check-sat)
(get-model)